149152.02
0 1 3 5 6 7 8 9 10 11 12 112 111 110 109 108 212 211 87 86 85 84 83 187 186 184 185 62 61 60 59 58 162 161 160 37 36 35 34 33 137 136 135 134 133 132 131 29 30 28 130 129 128 127 126 23 125 124 123 122 121 120 119 118 117 18 19 20 21 22 146 148 27 25 24 26 152 153 151 48 50 49 150 149 147 145 43 44 144 143 142 141 140 16 14 113 114 116 115 13 15 17 138 139 38 39 40 41 42 163 64 63 164 165 166 167 168 69 68 169 47 45 46 170 171 172 173 174 52 51 175 73 74 176 177 178 179 180 56 54 158 159 157 31 32 156 155 154 53 55 57 182 183 181 78 79 80 81 82 205 204 206 207 209 210 208 103 104 105 106 107 4 2 102 101 100 99 98 200 202 203 201 77 75 76 199 198 197 196 195 93 95 94 194 71 70 72 193 192 191 190 66 65 67 188 189 88 89 90 91 92 213 214 215 216 217 218 97 96 219 220 221 222 223 224